100
32
9
3
22
30
5
28
20
17
26
1
27
14
12
5
9
5
30
4
3
27
10
23
5
18
27
21
6
30
12
15
29
30
32
17
11
12
32
21
14
32
18
27
13
19
18
12
8
9
30
31
9
2
8
30
32
21
23
14
18
23
5
5
4
21
24
11
17
28
1
30
4
7
10
5
3
19
4
6
22
28
10
3
6
3
10
22
12
17
24
1
8
6
1
20
9
16
12
17
6
2